Geographic Exponential Decay
40 187 186 164 32 256 207 300 14 64 209 62 9 132 215 124 94 181 139 213 65 99 129 118 13 121 73 188 273 235 288 91 267 154 161 307 58 255 264 309 220
p edge 320 1287
e 0 10 4.0
e 0 72 16.0
e 0 191 14.0
e 0 188 66.0
e 0 111 24.0
e 0 229 10.0
e 0 136 1.0
e 1 242 5.0
e 1 125 1.0
e 2 50 6.0
e 2 261 11.0
e 2 198 10.0
e 2 95 6.0
e 3 85 2.0
e 3 39 8.0
e 3 36 5.0
e 3 141 1.0
e 4 112 1.0
e 5 76 5.0
e 5 41 4.0
e 6 219 3.0
e 6 190 1.0
e 7 125 1.0
e 8 193 2.0
e 9 33 34.0
e 9 199 56.0
e 9 88 52.0
e 9 46 16.0
e 9 281 27.0
e 9 148 93.0
e 9 16 37.0
e 9 260 59.0
e 9 37 19.0
e 9 223 30.0
e 9 311 54.0
e 9 229 63.0
e 9 246 46.0
e 9 152 46.0
e 9 293 31.0
e 9 171 13.0
e 9 204 13.0
e 9 272 79.0
e 9 138 19.0
e 9 282 58.0
e 9 262 31.0
e 9 115 39.0
e 9 59 29.0
e 9 265 21.0
e 9 219 76.0
e 9 38 57.0
e 9 230 31.0
e 10 36 1.0
e 10 124 40.0
e 10 222 10.0
e 11 230 1.0
e 12 191 9.0
e 12 140 2.0
e 12 106 11.0
e 12 71 6.0
e 13 227 51.0
e 13 299 15.0
e 13 18 57.0
e 13 88 72.0
e 13 205 44.0
e 13 142 66.0
e 13 89 45.0
e 13 143 39.0
e 13 224 30.0
e 13 297 84.0
e 13 193 68.0
e 13 228 9.0
e 13 271 65.0
e 13 185 19.0
e 13 165 29.0
e 13 204 15.0
e 13 194 59.0
e 13 93 77.0
e 13 269 8.0
e 13 171 59.0
e 13 64 73.0
e 13 258 48.0
e 13 100 70.0
e 13 315 9.0
e 13 49 86.0
e 13 213 73.0
e 13 172 97.0
e 14 177 9.0
e 14 239 46.0
e 14 141 3.0
e 14 68 82.0
e 14 200 21.0
e 14 169 53.0
e 14 243 89.0
e 14 263 94.0
e 14 240 10.0
e 14 171 55.0
e 14 30 57.0
e 14 304 26.0
e 14 285 11.0
e 14 76 88.0
e 14 197 38.0
e 14 40 22.0
e 14 150 48.0
e 14 277 93.0
e 14 172 100.0
e 14 110 75.0
e 14 69 83.0
e 14 122 52.0
e 14 73 44.0
e 14 63 99.0
e 14 269 39.0
e 14 273 53.0
e 14 302 80.0
e 15 107 12.0
e 17 158 2.0
e 18 153 3.0
e 19 154 97.0
e 19 158 3.0
e 20 58 44.0
e 21 190 1.0
e 21 141 6.0
e 22 62 87.0
e 23 107 5.0
e 24 239 1.0
e 24 231 1.0
e 24 108 10.0
e 24 148 3.0
e 25 134 1.0
e 26 269 8.0
e 27 297 2.0
e 27 48 6.0
e 28 92 3.0
e 29 144 2.0
e 30 233 3.0
e 31 207 28.0
e 31 143 5.0
e 32 84 33.0
e 32 253 10.0
e 32 285 4.0
e 32 166 56.0
e 32 204 98.0
e 32 19 21.0
e 32 21 84.0
e 32 248 37.0
e 32 255 90.0
e 32 156 45.0
e 32 81 78.0
e 32 303 37.0
e 32 229 31.0
e 32 239 30.0
e 32 218 35.0
e 32 20 22.0
e 32 6 7.0
e 32 34 4.0
e 32 121 26.0
e 32 209 86.0
e 32 80 76.0
e 32 181 99.0
e 32 7 6.0
e 32 138 70.0
e 32 219 13.0
e 32 312 91.0
e 32 185 8.0
e 34 242 2.0
e 35 275 10.0
e 35 12 2.0
e 35 169 1.0
e 35 104 9.0
e 38 314 1.0
e 41 152 1.0
e 42 119 22.0
e 43 11 1.0
e 44 33 1.0
e 45 79 2.0
e 45 131 8.0
e 45 83 1.0
e 45 90 5.0
e 46 288 22.0
e 47 184 11.0
e 48 241 4.0
e 49 103 2.0
e 49 143 10.0
e 49 232 2.0
e 51 112 1.0
e 52 27 5.0
e 52 37 2.0
e 53 264 93.0
e 53 263 8.0
e 54 12 10.0
e 54 162 8.0
e 54 229 11.0
e 54 241 4.0
e 55 40 1.0
e 56 53 1.0
e 57 249 1.0
e 58 175 66.0
e 58 84 92.0
e 58 200 12.0
e 58 165 72.0
e 58 229 17.0
e 58 214 82.0
e 58 9 8.0
e 58 160 64.0
e 58 10 31.0
e 58 72 46.0
e 58 54 37.0
e 58 232 23.0
e 58 265 35.0
e 58 309 37.0
e 58 216 15.0
e 58 147 56.0
e 58 266 31.0
e 58 102 98.0
e 58 78 82.0
e 58 62 21.0
e 58 87 7.0
e 58 268 49.0
e 58 86 37.0
e 58 236 45.0
e 58 103 44.0
e 58 162 67.0
e 59 143 8.0
e 59 101 2.0
e 59 12 3.0
e 60 264 35.0
e 61 14 78.0
e 61 251 3.0
e 62 82 23.0
e 62 303 66.0
e 62 105 73.0
e 62 192 36.0
e 62 167 4.0
e 62 154 20.0
e 62 120 67.0
e 62 245 98.0
e 62 294 27.0
e 62 291 16.0
e 62 191 10.0
e 62 261 41.0
e 62 162 73.0
e 62 110 97.0
e 62 23 28.0
e 62 147 54.0
e 62 35 5.0
e 62 132 89.0
e 62 117 19.0
e 62 72 17.0
e 62 293 43.0
e 62 36 34.0
e 62 257 33.0
e 62 130 71.0
e 62 109 10.0
e 64 229 93.0
e 64 22 12.0
e 64 108 85.0
e 64 308 50.0
e 64 117 75.0
e 64 57 98.0
e 64 220 41.0
e 64 196 50.0
e 64 287 32.0
e 64 228 21.0
e 64 15 17.0
e 64 298 26.0
e 64 28 29.0
e 64 207 4.0
e 64 233 35.0
e 64 45 13.0
e 64 313 5.0
e 64 26 87.0
e 64 30 73.0
e 64 309 97.0
e 64 177 4.0
e 64 104 98.0
e 64 159 31.0
e 64 38 58.0
e 64 122 64.0
e 64 137 76.0
e 65 229 22.0
e 65 257 74.0
e 65 263 23.0
e 65 95 39.0
e 65 203 53.0
e 65 54 53.0
e 65 45 65.0
e 65 185 67.0
e 65 96 39.0
e 65 38 51.0
e 65 103 55.0
e 65 145 47.0
e 65 44 94.0
e 65 172 26.0
e 65 281 52.0
e 65 64 43.0
e 65 83 82.0
e 65 304 67.0
e 65 39 20.0
e 65 277 7.0
e 65 112 25.0
e 65 4 16.0
e 65 308 76.0
e 65 15 89.0
e 65 179 47.0
e 65 9 30.0
e 65 2 49.0
e 66 41 2.0
e 66 52 1.0
e 67 143 1.0
e 67 37 1.0
e 67 35 10.0
e 67 91 15.0
e 68 245 11.0
e 69 184 9.0
e 69 268 11.0
e 69 218 5.0
e 70 197 4.0
e 70 76 1.0
e 73 315 61.0
e 73 147 84.0
e 73 80 99.0
e 73 173 12.0
e 73 144 94.0
e 73 290 66.0
e 73 99 71.0
e 73 168 28.0
e 73 188 54.0
e 73 68 91.0
e 73 107 78.0
e 73 86 1.0
e 73 292 100.0
e 73 294 69.0
e 73 106 32.0
e 73 285 75.0
e 73 87 46.0
e 73 152 90.0
e 73 239 60.0
e 73 108 56.0
e 73 24 93.0
e 73 215 71.0
e 73 69 62.0
e 73 35 3.0
e 73 178 95.0
e 73 224 64.0
e 74 177 1.0
e 74 212 9.0
e 74 23 6.0
e 74 193 10.0
e 75 141 3.0
e 75 191 5.0
e 77 245 2.0
e 77 302 9.0
e 77 301 3.0
e 77 214 6.0
e 78 176 5.0
e 85 4 1.0
e 85 311 5.0
e 85 135 8.0
e 88 303 12.0
e 88 117 1.0
e 91 249 60.0
e 91 247 69.0
e 91 296 87.0
e 91 310 53.0
e 91 193 74.0
e 91 182 82.0
e 91 92 35.0
e 91 309 61.0
e 91 260 36.0
e 91 107 96.0
e 91 160 62.0
e 91 303 24.0
e 91 246 50.0
e 91 189 46.0
e 91 5 75.0
e 91 225 95.0
e 91 289 84.0
e 91 52 23.0
e 91 297 47.0
e 91 162 73.0
e 91 286 33.0
e 91 164 3.0
e 91 209 95.0
e 91 191 34.0
e 91 192 85.0
e 91 172 91.0
e 94 134 29.0
e 94 268 33.0
e 94 175 43.0
e 94 219 48.0
e 94 193 72.0
e 94 277 88.0
e 94 61 87.0
e 94 163 81.0
e 94 3 62.0
e 94 230 34.0
e 94 281 69.0
e 94 185 49.0
e 94 75 42.0
e 94 227 48.0
e 94 77 20.0
e 94 91 96.0
e 94 174 70.0
e 94 313 98.0
e 94 103 19.0
e 94 250 13.0
e 94 260 88.0
e 94 118 58.0
e 94 198 47.0
e 94 70 6.0
e 94 191 34.0
e 94 97 67.0
e 94 307 76.0
e 97 44 2.0
e 98 153 10.0
e 98 185 8.0
e 98 55 1.0
e 98 275 6.0
e 99 102 100.0
e 99 197 95.0
e 99 51 88.0
e 99 221 80.0
e 99 142 32.0
e 99 165 33.0
e 99 171 100.0
e 99 87 69.0
e 99 3 42.0
e 99 154 64.0
e 99 305 94.0
e 99 230 32.0
e 99 206 6.0
e 99 52 1.0
e 99 97 60.0
e 99 30 77.0
e 99 193 47.0
e 99 227 47.0
e 99 170 59.0
e 99 29 72.0
e 99 79 84.0
e 99 156 96.0
e 99 57 38.0
e 99 219 46.0
e 99 244 17.0
e 99 200 56.0
e 101 212 6.0
e 105 123 18.0
e 105 264 98.0
e 105 245 17.0
e 105 92 6.0
e 105 22 3.0
e 105 113 4.0
e 109 147 5.0
e 111 191 12.0
e 111 290 2.0
e 111 112 9.0
e 111 118 1.0
e 111 37 13.0
e 111 177 4.0
e 113 102 6.0
e 114 317 2.0
e 115 266 8.0
e 115 259 12.0
e 115 292 11.0
e 116 287 11.0
e 116 164 52.0
e 116 304 9.0
e 116 130 5.0
e 118 61 60.0
e 118 218 39.0
e 118 154 81.0
e 118 280 40.0
e 118 163 22.0
e 118 300 24.0
e 118 77 45.0
e 118 50 74.0
e 118 198 18.0
e 118 29 14.0
e 118 242 86.0
e 118 121 37.0
e 118 39 91.0
e 118 317 15.0
e 118 143 97.0
e 118 193 38.0
e 118 239 93.0
e 118 269 32.0
e 118 65 57.0
e 118 295 91.0
e 118 144 70.0
e 118 238 69.0
e 118 55 68.0
e 118 112 10.0
e 118 223 55.0
e 119 272 8.0
e 119 13 5.0
e 119 44 11.0
e 119 277 13.0
e 119 253 17.0
e 119 264 9.0
e 121 141 58.0
e 121 282 34.0
e 121 153 63.0
e 121 134 73.0
e 121 108 46.0
e 121 50 85.0
e 121 82 41.0
e 121 302 48.0
e 121 20 76.0
e 121 73 94.0
e 121 61 100.0
e 121 88 58.0
e 121 248 52.0
e 121 296 53.0
e 121 210 84.0
e 121 154 60.0
e 121 170 78.0
e 121 272 15.0
e 121 204 51.0
e 121 304 72.0
e 121 228 76.0
e 121 133 54.0
e 121 1 100.0
e 121 45 77.0
e 121 120 12.0
e 124 180 44.0
e 124 162 59.0
e 124 182 42.0
e 124 93 3.0
e 124 112 42.0
e 124 114 61.0
e 124 0 13.0
e 124 212 57.0
e 124 89 99.0
e 124 138 84.0
e 124 214 43.0
e 124 172 45.0
e 124 185 2.0
e 124 271 35.0
e 124 188 17.0
e 124 216 52.0
e 124 104 89.0
e 124 177 80.0
e 124 312 94.0
e 124 37 45.0
e 124 203 58.0
e 124 46 63.0
e 124 145 19.0
e 124 74 85.0
e 124 228 83.0
e 124 131 3.0
e 126 292 5.0
e 126 220 70.0
e 127 3 2.0
e 128 245 3.0
e 128 112 5.0
e 129 143 58.0
e 129 196 73.0
e 129 250 60.0
e 129 122 44.0
e 129 14 25.0
e 129 167 7.0
e 129 45 48.0
e 129 77 78.0
e 129 79 56.0
e 129 204 92.0
e 129 161 49.0
e 129 218 27.0
e 129 30 89.0
e 129 292 57.0
e 129 242 5.0
e 129 241 42.0
e 129 189 77.0
e 129 234 45.0
e 129 5 9.0
e 129 266 99.0
e 129 115 17.0
e 129 299 84.0
e 129 138 49.0
e 129 176 56.0
e 129 209 92.0
e 129 82 91.0
e 129 65 66.0
e 132 194 39.0
e 132 179 84.0
e 132 149 12.0
e 132 154 15.0
e 132 254 65.0
e 132 196 11.0
e 132 78 29.0
e 132 204 18.0
e 132 134 82.0
e 132 206 55.0
e 132 247 64.0
e 132 296 92.0
e 132 102 79.0
e 132 182 28.0
e 132 18 36.0
e 132 230 12.0
e 132 33 98.0
e 132 145 82.0
e 132 212 77.0
e 132 278 82.0
e 132 135 26.0
e 132 109 27.0
e 132 5 44.0
e 132 65 42.0
e 132 192 31.0
e 132 217 17.0
e 133 240 1.0
e 136 284 24.0
e 136 200 19.0
e 136 216 3.0
e 136 281 6.0
e 136 98 8.0
e 136 42 23.0
e 137 225 9.0
e 137 114 10.0
e 137 200 3.0
e 139 95 13.0
e 139 174 38.0
e 139 87 26.0
e 139 100 58.0
e 139 80 18.0
e 139 135 53.0
e 139 183 22.0
e 139 222 27.0
e 139 40 3.0
e 139 203 56.0
e 139 209 82.0
e 139 4 13.0
e 139 197 50.0
e 139 198 70.0
e 139 253 29.0
e 139 119 32.0
e 139 181 81.0
e 139 29 41.0
e 139 62 76.0
e 139 94 34.0
e 139 30 95.0
e 139 223 98.0
e 139 41 6.0
e 139 310 93.0
e 139 32 28.0
e 139 257 29.0
e 139 247 30.0
e 146 179 2.0
e 146 241 5.0
e 149 294 3.0
e 150 134 3.0
e 151 220 98.0
e 154 50 89.0
e 154 47 92.0
e 154 42 13.0
e 154 231 92.0
e 154 127 19.0
e 154 110 10.0
e 154 244 68.0
e 154 317 17.0
e 154 258 32.0
e 154 122 32.0
e 154 128 10.0
e 154 14 96.0
e 154 74 73.0
e 154 64 52.0
e 154 232 5.0
e 154 252 70.0
e 154 95 3.0
e 154 44 64.0
e 154 186 68.0
e 154 4 70.0
e 154 219 38.0
e 155 224 1.0
e 156 222 6.0
e 156 72 19.0
e 156 62 9.0
e 156 119 21.0
e 156 141 20.0
e 157 113 3.0
e 157 117 2.0
e 161 144 80.0
e 161 253 8.0
e 161 208 82.0
e 161 179 94.0
e 161 301 38.0
e 161 250 89.0
e 161 136 75.0
e 161 56 12.0
e 161 70 23.0
e 161 138 20.0
e 161 166 46.0
e 161 67 56.0
e 161 14 18.0
e 161 34 80.0
e 161 184 94.0
e 161 271 60.0
e 161 119 5.0
e 161 210 44.0
e 161 178 94.0
e 161 116 96.0
e 161 139 18.0
e 161 176 33.0
e 161 152 66.0
e 161 191 52.0
e 161 20 25.0
e 161 135 8.0
e 163 138 2.0
e 163 90 7.0
e 163 125 10.0
e 163 180 7.0
e 163 318 24.0
e 164 315 75.0
e 164 162 89.0
e 164 183 4.0
e 164 187 20.0
e 164 308 9.0
e 164 229 12.0
e 164 37 85.0
e 164 305 63.0
e 164 170 7.0
e 164 293 96.0
e 164 268 29.0
e 164 132 27.0
e 164 97 75.0
e 164 252 25.0
e 164 118 85.0
e 164 60 39.0
e 164 95 33.0
e 164 289 77.0
e 164 36 75.0
e 164 88 40.0
e 164 159 93.0
e 164 0 4.0
e 164 111 8.0
e 164 219 77.0
e 164 31 32.0
e 166 313 24.0
e 166 280 16.0
e 166 214 14.0
e 166 82 23.0
e 166 73 97.0
e 176 261 16.0
e 176 115 3.0
e 176 144 5.0
e 176 125 47.0
e 176 149 23.0
e 176 47 19.0
e 176 63 35.0
e 176 95 46.0
e 176 5 24.0
e 176 239 1.0
e 176 118 85.0
e 181 88 100.0
e 181 307 82.0
e 181 35 41.0
e 181 295 30.0
e 181 20 8.0
e 181 204 95.0
e 181 157 44.0
e 181 8 41.0
e 181 15 51.0
e 181 271 42.0
e 181 242 1.0
e 181 150 1.0
e 181 221 35.0
e 181 76 91.0
e 181 154 39.0
e 181 243 89.0
e 181 128 29.0
e 181 141 92.0
e 181 174 52.0
e 181 226 5.0
e 181 85 75.0
e 181 116 27.0
e 181 5 67.0
e 181 273 19.0
e 181 38 64.0
e 184 26 1.0
e 186 274 48.0
e 186 181 83.0
e 186 190 42.0
e 186 0 62.0
e 186 245 44.0
e 186 83 16.0
e 186 107 74.0
e 186 126 95.0
e 186 271 29.0
e 186 268 95.0
e 186 169 32.0
e 186 309 6.0
e 186 130 38.0
e 186 70 93.0
e 186 257 21.0
e 186 306 43.0
e 186 37 41.0
e 186 310 67.0
e 186 156 50.0
e 186 13 89.0
e 186 155 3.0
e 186 220 59.0
e 186 90 56.0
e 186 34 28.0
e 186 318 72.0
e 186 235 29.0
e 187 236 53.0
e 187 83 75.0
e 187 185 33.0
e 187 269 17.0
e 187 206 55.0
e 187 105 20.0
e 187 74 47.0
e 187 14 72.0
e 187 252 60.0
e 187 256 50.0
e 187 120 93.0
e 187 294 21.0
e 187 84 54.0
e 187 175 76.0
e 187 41 78.0
e 187 244 63.0
e 187 122 70.0
e 187 166 85.0
e 187 189 75.0
e 187 288 52.0
e 187 245 55.0
e 187 10 34.0
e 187 201 60.0
e 187 78 14.0
e 187 264 95.0
e 187 85 18.0
e 188 270 97.0
e 188 145 77.0
e 188 15 33.0
e 188 41 27.0
e 188 297 25.0
e 188 291 33.0
e 188 159 47.0
e 188 78 46.0
e 188 263 81.0
e 188 315 68.0
e 188 298 13.0
e 188 135 57.0
e 188 24 98.0
e 188 10 6.0
e 188 25 29.0
e 188 273 56.0
e 188 300 5.0
e 188 247 25.0
e 188 86 75.0
e 188 286 59.0
e 188 35 47.0
e 188 139 36.0
e 188 194 89.0
e 188 136 98.0
e 195 173 2.0
e 195 53 3.0
e 199 113 4.0
e 202 50 18.0
e 202 215 57.0
e 202 158 20.0
e 202 35 12.0
e 202 230 13.0
e 202 208 8.0
e 202 213 3.0
e 203 115 3.0
e 206 216 3.0
e 207 259 19.0
e 207 293 2.0
e 207 222 81.0
e 207 233 73.0
e 207 45 38.0
e 207 303 53.0
e 207 83 80.0
e 207 121 80.0
e 207 198 84.0
e 207 102 54.0
e 207 78 38.0
e 207 139 26.0
e 207 197 26.0
e 207 82 71.0
e 207 277 50.0
e 207 39 32.0
e 207 317 30.0
e 207 179 82.0
e 207 194 66.0
e 207 132 15.0
e 207 199 20.0
e 207 220 88.0
e 207 271 3.0
e 207 97 22.0
e 207 137 5.0
e 209 238 89.0
e 209 296 61.0
e 209 95 64.0
e 209 36 4.0
e 209 74 60.0
e 209 134 83.0
e 209 310 46.0
e 209 6 45.0
e 209 311 7.0
e 209 110 20.0
e 209 289 62.0
e 209 211 78.0
e 209 264 17.0
e 209 133 85.0
e 209 130 1.0
e 209 146 99.0
e 209 169 1.0
e 209 164 32.0
e 209 312 36.0
e 209 199 14.0
e 209 290 78.0
e 209 166 82.0
e 209 14 35.0
e 213 6 92.0
e 213 59 69.0
e 213 244 85.0
e 213 138 95.0
e 213 216 69.0
e 213 7 29.0
e 213 305 16.0
e 213 194 71.0
e 213 306 34.0
e 213 249 85.0
e 213 156 76.0
e 213 309 100.0
e 213 139 25.0
e 213 192 62.0
e 213 188 82.0
e 213 21 2.0
e 213 264 17.0
e 213 291 64.0
e 213 147 28.0
e 213 2 98.0
e 213 128 2.0
e 213 186 68.0
e 213 136 54.0
e 213 252 80.0
e 213 110 25.0
e 215 38 16.0
e 215 259 16.0
e 215 240 19.0
e 215 309 4.0
e 215 274 37.0
e 215 68 70.0
e 215 233 86.0
e 215 236 69.0
e 215 311 32.0
e 215 227 51.0
e 215 128 85.0
e 215 291 9.0
e 215 186 88.0
e 215 142 4.0
e 215 84 54.0
e 215 126 21.0
e 215 78 39.0
e 215 225 7.0
e 215 190 10.0
e 215 255 96.0
e 215 127 69.0
e 215 287 12.0
e 215 158 50.0
e 215 176 21.0
e 215 140 11.0
e 217 47 18.0
e 217 204 22.0
e 217 145 13.0
e 217 86 2.0
e 217 52 9.0
e 217 24 5.0
e 220 157 84.0
e 220 290 34.0
e 220 1 30.0
e 220 19 99.0
e 220 205 35.0
e 220 118 75.0
e 220 40 1.0
e 220 33 11.0
e 220 192 15.0
e 220 276 99.0
e 220 171 48.0
e 220 196 48.0
e 220 30 56.0
e 220 224 96.0
e 220 188 38.0
e 220 22 72.0
e 220 74 42.0
e 220 148 51.0
e 220 275 33.0
e 220 306 88.0
e 220 212 55.0
e 220 203 48.0
e 221 158 1.0
e 221 276 45.0
e 226 300 7.0
e 228 216 8.0
e 228 160 2.0
e 228 126 17.0
e 234 155 1.0
e 235 238 15.0
e 235 70 92.0
e 235 96 23.0
e 235 216 21.0
e 235 251 24.0
e 235 288 88.0
e 235 241 50.0
e 235 109 34.0
e 235 72 50.0
e 235 177 33.0
e 235 13 79.0
e 235 144 17.0
e 235 97 25.0
e 235 224 26.0
e 235 81 93.0
e 235 79 11.0
e 235 315 58.0
e 235 45 82.0
e 235 183 44.0
e 235 207 61.0
e 235 127 48.0
e 235 83 19.0
e 235 80 54.0
e 235 82 50.0
e 235 232 22.0
e 235 214 14.0
e 237 315 1.0
e 238 113 8.0
e 243 58 77.0
e 243 270 24.0
e 243 140 13.0
e 243 211 17.0
e 243 168 18.0
e 255 297 4.0
e 255 294 99.0
e 255 171 81.0
e 255 87 62.0
e 255 180 43.0
e 255 101 12.0
e 255 200 12.0
e 255 30 49.0
e 255 93 28.0
e 255 293 20.0
e 255 241 53.0
e 255 167 36.0
e 255 280 92.0
e 255 189 39.0
e 255 249 40.0
e 255 158 21.0
e 255 217 32.0
e 255 166 64.0
e 255 88 77.0
e 255 15 35.0
e 255 139 26.0
e 255 151 93.0
e 255 188 25.0
e 255 0 22.0
e 255 61 31.0
e 256 311 66.0
e 256 308 3.0
e 256 106 82.0
e 256 48 99.0
e 256 116 67.0
e 256 261 74.0
e 256 215 7.0
e 256 0 51.0
e 256 262 42.0
e 256 220 35.0
e 256 87 21.0
e 256 9 95.0
e 256 68 51.0
e 256 184 35.0
e 256 238 79.0
e 256 65 77.0
e 256 135 97.0
e 256 96 39.0
e 256 254 10.0
e 256 277 36.0
e 256 86 76.0
e 256 113 90.0
e 256 63 68.0
e 256 156 97.0
e 256 172 62.0
e 256 19 93.0
e 264 297 50.0
e 264 231 29.0
e 264 310 24.0
e 264 152 67.0
e 264 234 36.0
e 264 46 72.0
e 264 156 92.0
e 264 313 29.0
e 264 146 37.0
e 264 12 66.0
e 264 142 94.0
e 264 243 100.0
e 264 308 81.0
e 264 206 53.0
e 264 90 5.0
e 264 102 43.0
e 264 123 96.0
e 264 210 30.0
e 264 57 72.0
e 264 67 41.0
e 267 302 38.0
e 267 205 17.0
e 267 128 70.0
e 267 206 48.0
e 267 92 6.0
e 267 125 77.0
e 267 196 9.0
e 267 173 83.0
e 267 180 72.0
e 267 286 69.0
e 267 59 6.0
e 267 51 83.0
e 267 235 5.0
e 267 217 59.0
e 267 52 21.0
e 267 208 70.0
e 267 11 95.0
e 267 249 23.0
e 267 12 52.0
e 267 294 95.0
e 267 5 46.0
e 267 218 14.0
e 267 234 91.0
e 267 162 6.0
e 267 229 10.0
e 267 315 67.0
e 267 121 19.0
e 271 4 4.0
e 271 217 29.0
e 271 88 24.0
e 271 144 36.0
e 271 50 26.0
e 271 54 17.0
e 271 15 21.0
e 271 200 14.0
e 273 147 16.0
e 273 306 60.0
e 273 207 63.0
e 273 13 26.0
e 273 302 91.0
e 273 245 19.0
e 273 231 35.0
e 273 169 73.0
e 273 318 66.0
e 273 310 76.0
e 273 172 43.0
e 273 253 8.0
e 273 164 37.0
e 273 58 86.0
e 273 80 93.0
e 273 2 39.0
e 273 309 12.0
e 273 287 21.0
e 273 201 26.0
e 273 192 31.0
e 273 298 77.0
e 273 53 46.0
e 273 93 73.0
e 273 226 16.0
e 276 208 17.0
e 276 19 33.0
e 276 74 44.0
e 276 285 1.0
e 276 318 40.0
e 276 101 22.0
e 276 108 29.0
e 276 110 14.0
e 276 275 36.0
e 276 237 7.0
e 276 249 22.0
e 276 254 47.0
e 278 218 5.0
e 279 20 2.0
e 282 70 6.0
e 282 28 1.0
e 283 99 80.0
e 283 276 9.0
e 284 277 10.0
e 288 115 53.0
e 288 150 23.0
e 288 65 30.0
e 288 91 69.0
e 288 40 96.0
e 288 294 36.0
e 288 113 13.0
e 288 170 19.0
e 288 252 82.0
e 288 120 12.0
e 288 179 52.0
e 288 149 34.0
e 288 276 98.0
e 288 73 89.0
e 288 136 52.0
e 288 197 54.0
e 288 247 92.0
e 288 280 15.0
e 288 205 56.0
e 288 92 58.0
e 288 7 33.0
e 288 316 3.0
e 288 123 30.0
e 288 122 88.0
e 299 50 8.0
e 299 21 10.0
e 300 19 96.0
e 300 253 3.0
e 300 6 72.0
e 300 220 65.0
e 300 73 28.0
e 300 82 86.0
e 300 233 60.0
e 300 234 7.0
e 300 175 39.0
e 300 25 79.0
e 300 107 60.0
e 300 111 54.0
e 300 38 79.0
e 300 240 31.0
e 300 72 70.0
e 300 4 100.0
e 300 56 86.0
e 300 126 23.0
e 300 279 30.0
e 300 139 26.0
e 300 135 26.0
e 300 225 59.0
e 300 128 66.0
e 300 58 14.0
e 305 89 6.0
e 306 161 72.0
e 306 157 10.0
e 306 301 46.0
e 306 84 6.0
e 306 83 46.0
e 306 188 52.0
e 306 87 25.0
e 306 274 48.0
e 306 173 16.0
e 306 73 63.0
e 307 259 21.0
e 307 180 69.0
e 307 275 34.0
e 307 71 42.0
e 307 253 54.0
e 307 0 62.0
e 307 62 73.0
e 307 115 94.0
e 307 89 74.0
e 307 153 72.0
e 307 73 70.0
e 307 109 9.0
e 307 161 58.0
e 307 201 58.0
e 307 182 97.0
e 307 36 50.0
e 307 42 49.0
e 307 101 50.0
e 307 282 36.0
e 307 34 16.0
e 307 234 18.0
e 307 110 22.0
e 307 271 20.0
e 307 31 88.0
e 307 84 18.0
e 309 60 36.0
e 309 310 95.0
e 309 32 14.0
e 309 84 26.0
e 309 29 85.0
e 309 85 23.0
e 309 63 60.0
e 309 255 76.0
e 309 263 59.0
e 309 316 76.0
e 309 311 11.0
e 309 119 74.0
e 309 117 60.0
e 309 94 88.0
e 309 251 51.0
e 309 22 91.0
e 309 61 72.0
e 309 78 19.0
e 309 270 24.0
e 309 230 24.0
e 314 148 1.0
e 319 145 1.0
e 319 140 3.0
